NAME : 10_3_3_3_(08).dat
COMMENT : Henke, Speranza, Wäscher, 2015
TYPE : MCVRP
DIMENSION : 11
EDGE_WEIGHT_TYPE : DISTANCE_MATRIX
CAPACITY : 1000
VEHICLES : 2
PRODUCT TYPES : 3
COMPARTMENTS : 3
NODE_COORD_SECTION
1 50 50
2 2.54 49.61
3 97.32 93.17
4 90.62 88.84
5 64.74 73.17
6 55.32 43.06
7 77.92 85.66
8 46.48 23.56
9 14.82 46.43
10 82.16 0.77
11 66.59 15.55
DEMAND_SECTION
1 0 0 0
2 66 54 28
3 105 32 27
4 59 56 41
5 48 46 19
6 124 29 14
7 68 80 22
8 36 21 21
9 134 6 37
10 58 73 42
11 6 26 31
DEPOT_SECTION
1
EOF